2549.32
0 12 22 13 11 16 17 60 62 3 0
0 31 43 14 25 15 18 20 24 27 75 50 6 0
0 39 36 32 48 61 23 8 53 10 0
0 29 72 0
0 45 33 34 41 30 35 40 68 7 56 0
0 65 70 26 21 2 44 49 58 0
0 47 42 37 46 52 5 0
0 69 66 67 73 74 51 19 38 55 64 63 9 1 0
0 71 28 59 57 54 4 0
